CPXPARAM_TimeLimit                               1800
CPXPARAM_Read_DataCheck                          1
CPXPARAM_MIP_Strategy_HeuristicFreq              -1
Parallel mode: deterministic, using up to 8 threads for concurrent optimization.
Tried aggregator 1 time.
LP Presolve eliminated 112 rows and 20475 columns.
Reduced LP has 9998 rows, 1801 columns, and 29221 nonzeros.
Presolve time = 0.00 sec. (8.40 ticks)

Iteration log . . .
Iteration:     1   Dual objective     =           963.000000
Perturbation started.
Iteration:   202   Dual objective     =           963.000000
Initializing dual steep norms . . .
Iteration:   203   Dual objective     =           963.000169
Iteration:   490   Dual objective     =           963.011460
Iteration:   723   Dual objective     =           963.012498
Iteration:  1005   Dual objective     =           963.012764
Iteration:  1261   Dual objective     =           963.013048
Iteration:  1461   Dual objective     =           963.014883
Iteration:  1655   Dual objective     =           963.015039
Iteration:  1890   Dual objective     =           982.485695
Iteration:  2154   Dual objective     =           982.485868
Iteration:  2447   Dual objective     =           982.486859
Iteration:  2746   Dual objective     =           982.487159
Removing perturbation.

Dual simplex solved model.

